25
1 0 6
2 0 2
2 1 3
3 0 6
3 1 5
3 2 5
4 0 6
4 1 8
4 2 2
4 3 3
5 0 4
5 1 5
5 2 5
5 3 1
5 4 8
6 0 5
6 1 6
6 2 4
6 3 5
6 4 8
6 5 4
7 0 8
7 1 7
7 2 8
7 3 10
7 4 2
7 5 7
7 6 6
8 0 8
8 1 4
8 2 7
8 3 7
8 4 3
8 5 6
8 6 7
8 7 4
9 0 10
9 1 9
9 2 8
9 3 7
9 4 7
9 5 9
9 6 5
9 7 8
9 8 8
10 0 6
10 1 6
10 2 2
10 3 5
10 4 6
10 5 4
10 6 6
10 7 3
10 8 2
10 9 1
11 0 9
11 1 6
11 2 9
11 3 2
11 4 1
11 5 6
11 6 9
11 7 10
11 8 5
11 9 1
11 10 1
12 0 6
12 1 10
12 2 3
12 3 5
12 4 10
12 5 8
12 6 5
12 7 8
12 8 5
12 9 5
12 10 4
12 11 6
13 0 2
13 1 7
13 2 8
13 3 5
13 4 7
13 5 8
13 6 4
13 7 8
13 8 10
13 9 6
13 10 7
13 11 7
13 12 7
14 0 10
14 1 5
14 2 4
14 3 4
14 4 3
14 5 5
14 6 7
14 7 2
14 8 5
14 9 8
14 10 1
14 11 1
14 12 9
14 13 5
15 0 8
15 1 1
15 2 7
15 3 10
15 4 7
15 5 7
15 6 3
15 7 6
15 8 5
15 9 10
15 10 5
15 11 5
15 12 5
15 13 8
15 14 2
16 0 5
16 1 8
16 2 7
16 3 6
16 4 6
16 5 10
16 6 10
16 7 3
16 8 7
16 9 4
16 10 3
16 11 4
16 12 5
16 13 6
16 14 10
16 15 8
17 0 8
17 1 2
17 2 4
17 3 7
17 4 10
17 5 1
17 6 7
17 7 2
17 8 5
17 9 10
17 10 7
17 11 10
17 12 4
17 13 1
17 14 10
17 15 6
17 16 7
18 0 6
18 1 7
18 2 5
18 3 8
18 4 5
18 5 2
18 6 7
18 7 3
18 8 1
18 9 7
18 10 1
18 11 5
18 12 8
18 13 4
18 14 1
18 15 2
18 16 10
18 17 9
19 0 6
19 1 7
19 2 7
19 3 2
19 4 4
19 5 7
19 6 7
19 7 9
19 8 1
19 9 7
19 10 3
19 11 6
19 12 3
19 13 4
19 14 8
19 15 2
19 16 7
19 17 7
19 18 8
20 0 10
20 1 9
20 2 3
20 3 4
20 4 4
20 5 3
20 6 3
20 7 9
20 8 5
20 9 2
20 10 5
20 11 4
20 12 7
20 13 6
20 14 9
20 15 10
20 16 5
20 17 6
20 18 6
20 19 2
21 0 1
21 1 6
21 2 6
21 3 10
21 4 3
21 5 3
21 6 9
21 7 1
21 8 2
21 9 9
21 10 4
21 11 4
21 12 3
21 13 9
21 14 10
21 15 10
21 16 2
21 17 1
21 18 2
21 19 7
21 20 8
22 0 4
22 1 2
22 2 1
22 3 10
22 4 3
22 5 3
22 6 3
22 7 4
22 8 8
22 9 6
22 10 1
22 11 5
22 12 7
22 13 8
22 14 5
22 15 9
22 16 10
22 17 9
22 18 4
22 19 8
22 20 9
22 21 8
23 0 8
23 1 6
23 2 6
23 3 6
23 4 6
23 5 2
23 6 10
23 7 9
23 8 9
23 9 7
23 10 3
23 11 4
23 12 8
23 13 10
23 14 3
23 15 7
23 16 8
23 17 5
23 18 8
23 19 6
23 20 8
23 21 5
23 22 1
24 0 7
24 1 8
24 2 2
24 3 2
24 4 9
24 5 4
24 6 5
24 7 5
24 8 2
24 9 7
24 10 2
24 11 5
24 12 8
24 13 1
24 14 2
24 15 7
24 16 8
24 17 9
24 18 6
24 19 4
24 20 5
24 21 7
24 22 3
24 23 4
